100
    1   485   485
    2    94    94
    3   326   326
    4   506   506
    5   248   248
    6   416   416
    7   421   421
    8   992   992
    9   322   322
   10   649   649
   11   795   795
   12   237   237
   13    43    43
   14   457   457
   15   845   845
   16   815   815
   17   955   955
   18   446   446
   19   252   252
   20   422   422
   21     9     9
   22   791   791
   23   901   901
   24   359   359
   25   122   122
   26   667   667
   27    94    94
   28   598   598
   29   738   738
   30     7     7
   31   574   574
   32   544   544
   33   715   715
   34   334   334
   35   882   882
   36   766   766
   37   367   367
   38   994   994
   39   984   984
   40   893   893
   41   299   299
   42   633   633
   43   433   433
   44   131   131
   45   682   682
   46   428   428
   47    72    72
   48   700   700
   49   874   874
   50   617   617
   51   138   138
   52   874   874
   53   856   856
   54   720   720
   55   145   145
   56   419   419
   57   995   995
   58   794   794
   59   529   529
   60   196   196
   61   199   199
   62   997   997
   63   277   277
   64   116   116
   65    97    97
   66   908   908
   67   719   719
   68   539   539
   69   242   242
   70   707   707
   71   107   107
   72   569   569
   73   122   122
   74   537   537
   75    70    70
   76   931   931
   77    98    98
   78   726   726
   79   600   600
   80   487   487
   81   645   645
   82   772   772
   83   267   267
   84   513   513
   85   972   972
   86    81    81
   87   895   895
   88   943   943
   89   213   213
   90    58    58
   91   748   748
   92   303   303
   93   487   487
   94   764   764
   95   923   923
   96   536   536
   97    29    29
   98   724   724
   99   674   674
  100   789   789
8664
